glpk/models/transportation4.lp
\* Problem: Transportation 4 - NGO *\

Minimize
 z: + 0.08 x11 + 0.07 x12 + 0.065 x13 + 0.08 x14 + 0.083 x15 + 0.08 x16
 + 0.083 x17 + 0.075 x21 + 0.07 x22 + 0.067 x23 + 0.06 x24 + 0.06 x25
 + 0.06 x26 + 0.06 x27 + 0.045 x31 + 0.04 x32 + 0.04 x33 + 0.027 x34
 + 0.03 x35 + 0.027 x36 + 0.03 x37 + 0.05 x41 + 0.045 x42 + 0.045 x43
 + 0.04 x44 + 0.04 x45 + 0.04 x46 + 0.045 x47 + 0.06 x41 + 0.055 x52
 + 0.05 x53 + 0.055 x54 + 0.055 x55 + 0.055 x56 + 0.06 x57

Subject To
 c1: - x17 - x16 - x15 - x14 - x13 - x12 - x11 >= -25000
 c2: - x27 - x26 - x25 - x24 - x23 - x22 - x21 >= -23000
 c3: - x37 - x36 - x35 - x34 - x33 - x32 - x31 >= -15000
 c4: - x47 - x46 - x45 - x44 - x43 - x42 - x41 >= -22000
 c5: - x57 - x56 - x55 - x54 - x53 - x52 - x41 >= -20000
 c6: + x41 + x41 + x31 + x21 + x11 >= 5000
 c7: + x52 + x42 + x32 + x22 + x12 >= 4000
 c8: + x53 + x43 + x33 + x23 + x13 >= 7000
 c9: + x54 + x44 + x34 + x24 + x14 >= 5000
 c10: + x55 + x45 + x35 + x25 + x15 >= 4000
 c11: + x56 + x46 + x36 + x26 + x16 >= 3500
 c12: + x57 + x47 + x37 + x27 + x17 >= 6000

Generals
 x11
 x12
 x13
 x14
 x15
 x16
 x17
 x21
 x22
 x23
 x24
 x25
 x26
 x27
 x31
 x32
 x33
 x34
 x35
 x36
 x37
 x41
 x42
 x43
 x44
 x45
 x46
 x47
 x41
 x52
 x53
 x54
 x55
 x56
 x57

End
