glpk/solutions/transportation4.sol
Transportation 4 - NGO
z = 1309.5
x11 = 0.0
x12 = 0.0
x13 = 0.0
x14 = 0.0
x15 = 0.0
x16 = 0.0
x17 = 0.0
x21 = 0.0
x22 = 0.0
x23 = 0.0
x24 = 0.0
x25 = 0.0
x26 = 0.0
x27 = 0.0
x31 = 0.0
x32 = 0.0
x33 = 0.0
x34 = 5000.0
x35 = 500.0
x36 = 3500.0
x37 = 6000.0
x41 = 5000.0
x42 = 4000.0
x43 = 7000.0
x44 = 0.0
x45 = 3500.0
x46 = 0.0
x47 = 0.0
x41 = 0.0
x52 = 0.0
x53 = 0.0
x54 = 0.0
x55 = 0.0
x56 = 0.0
x57 = 0.0
